NAME 
ROWS
 N  OBJ
 L  R0      
 L  R1      
 L  R2      
 E  R3      
 E  R4      
 E  R5      
 E  R6      
 E  R7      
 E  R8      
 E  R9      
 E  R10     
 E  R11     
 E  R12     
 E  R13     
 E  R14     
 E  R15     
 E  R16     
 E  R17     
COLUMNS
    MARKER    'MARKER'                 'INTORG'
    I0(10)    OBJ       -8
    I0(10)    R0        -128
    I0(10)    R1        129
    I0(10)    R2        -78
    I0(10)    R3        -1
    I0(10)    R5        9
    I0(10)    R7        3
    I0(10)    R8        9
    I0(10)    R10       16
    I0(10)    R11       2
    I0(10)    R17       1
    I1(10)    OBJ       -44
    I1(10)    R0        -183
    I1(10)    R1        -12
    I1(10)    R2        -35
    I1(10)    R3        18
    I1(10)    R4        18
    I1(10)    R5        3
    I1(10)    R6        16
    I1(10)    R8        14
    I1(10)    R9        -1
    I1(10)    R17       1
    I2(11)    OBJ       -130
    I2(11)    R0        77
    I2(11)    R1        108
    I2(11)    R2        157
    I2(11)    R3        16
    I2(11)    R5        18
    I2(11)    R6        18
    I2(11)    R7        9
    I2(11)    R8        18
    I2(11)    R9        18
    I2(11)    R10       8
    I2(11)    R17       1
    I3(8)     OBJ       163
    I3(8)     R0        32
    I3(8)     R1        161
    I3(8)     R2        87
    I3(8)     R3        2
    I3(8)     R6        9
    I3(8)     R8        5
    I3(8)     R10       18
    I3(8)     R17       1
    I4(9)     OBJ       12
    I4(9)     R0        154
    I4(9)     R1        94
    I4(9)     R2        32
    I4(9)     R4        17
    I4(9)     R6        8
    I4(9)     R7        6
    I4(9)     R10       6
    I4(9)     R11       15
    I4(9)     R17       1
    I5(10)    OBJ       109
    I5(10)    R0        -81
    I5(10)    R1        97
    I5(10)    R2        34
    I5(10)    R3        12
    I5(10)    R5        16
    I5(10)    R6        9
    I5(10)    R9        7
    I5(10)    R10       -1
    I5(10)    R11       -1
    I5(10)    R17       1
    I6(9)     OBJ       -100
    I6(9)     R0        108
    I6(9)     R1        16
    I6(9)     R2        165
    I6(9)     R4        9
    I6(9)     R5        19
    I6(9)     R8        3
    I6(9)     R10       3
    I6(9)     R11       12
    I6(9)     R17       1
    I7(8)     OBJ       -170
    I7(8)     R0        -152
    I7(8)     R1        72
    I7(8)     R2        56
    I7(8)     R3        6
    I7(8)     R4        17
    I7(8)     R8        4
    I7(8)     R11       3
    I7(8)     R17       1
    I8(11)    OBJ       170
    I8(11)    R0        48
    I8(11)    R1        -4
    I8(11)    R2        -127
    I8(11)    R3        14
    I8(11)    R4        4
    I8(11)    R6        8
    I8(11)    R7        2
    I8(11)    R8        -1
    I8(11)    R9        17
    I8(11)    R11       7
    I8(11)    R17       1
    MARKER    'MARKER'                 'INTEND'
    C9(13)    OBJ       8
    C9(13)    R0        6
    C9(13)    R1        2
    C9(13)    R2        6
    C9(13)    R3        18
    C9(13)    R4        5
    C9(13)    R7        4
    C9(13)    R8        7
    C9(13)    R10       4
    C9(13)    R11       18
    C9(13)    R12       12
    C9(13)    R14       16
    C9(13)    R15       5
    C9(13)    R16       17
    C10(12)   OBJ       -3
    C10(12)   R1        -10
    C10(12)   R2        6
    C10(12)   R3        14
    C10(12)   R5        18
    C10(12)   R6        4
    C10(12)   R9        13
    C10(12)   R10       8
    C10(12)   R12       13
    C10(12)   R13       13
    C10(12)   R14       17
    C10(12)   R15       5
    C10(12)   R16       14
    C11(12)   OBJ       7
    C11(12)   R0        -2
    C11(12)   R1        1
    C11(12)   R2        5
    C11(12)   R5        14
    C11(12)   R6        7
    C11(12)   R7        19
    C11(12)   R8        5
    C11(12)   R9        7
    C11(12)   R10       13
    C11(12)   R11       -1
    C11(12)   R12       15
    C11(12)   R15       11
    C12(10)   OBJ       2
    C12(10)   R0        -3
    C12(10)   R1        -9
    C12(10)   R2        3
    C12(10)   R3        4
    C12(10)   R4        6
    C12(10)   R11       17
    C12(10)   R12       17
    C12(10)   R14       12
    C12(10)   R15       19
    C12(10)   R16       8
    C13(13)   OBJ       1
    C13(13)   R0        7
    C13(13)   R1        -8
    C13(13)   R2        3
    C13(13)   R3        4
    C13(13)   R4        18
    C13(13)   R6        18
    C13(13)   R7        9
    C13(13)   R8        5
    C13(13)   R11       6
    C13(13)   R12       16
    C13(13)   R14       19
    C13(13)   R15       18
    C13(13)   R16       11
    C14(10)   OBJ       -3
    C14(10)   R0        -6
    C14(10)   R1        5
    C14(10)   R2        1
    C14(10)   R4        -1
    C14(10)   R5        9
    C14(10)   R6        11
    C14(10)   R7        16
    C14(10)   R10       1
    C14(10)   R14       18
    C14(10)   R15       10
    C15(1)    R3        1
    C16(1)    R4        1
    C17(1)    R5        1
    C18(1)    R6        1
    C19(1)    R7        1
    C20(1)    R8        1
    C21(1)    R9        1
    C22(1)    R10       1
    C23(1)    R11       1
    C24(1)    R12       1
    C25(1)    R13       1
    C26(1)    R14       1
    C27(1)    R15       1
    C28(1)    R16       1
    C29(1)    R17       1
RHS
    RHS1      R0        -2.4121052631578951e+02
    RHS1      R1        2.4068421052631584e+02
    RHS1      R2        2.8526315789473682e+02
    RHS1      R3        96
    RHS1      R4        59
    RHS1      R5        81
    RHS1      R6        80
    RHS1      R7        73
    RHS1      R8        96
    RHS1      R9        52
    RHS1      R10       84
    RHS1      R11       79
    RHS1      R12       63
    RHS1      R13       83
    RHS1      R14       82
    RHS1      R15       57
    RHS1      R16       99
    RHS1      R17       3
BOUNDS
 UP BND1      I0(10)    2
 UP BND1      I1(10)    2
 UP BND1      I2(11)    2
 UP BND1      I3(8)     2
 UP BND1      I4(9)     2
 UP BND1      I5(10)    2
 UP BND1      I6(9)     2
 UP BND1      I7(8)     2
 UP BND1      I8(11)    2
ENDATA
